c generated by sgen
p cnf 117 244
-2 -3 -4 0
-1 -3 -4 0
-1 -2 -4 0
-1 -2 -3 0
-6 -7 -8 0
-5 -7 -8 0
-5 -6 -8 0
-5 -6 -7 0
-10 -11 -12 0
-9 -11 -12 0
-9 -10 -12 0
-9 -10 -11 0
-14 -15 -16 0
-13 -15 -16 0
-13 -14 -16 0
-13 -14 -15 0
-18 -19 -20 0
-17 -19 -20 0
-17 -18 -20 0
-17 -18 -19 0
-22 -23 -24 0
-21 -23 -24 0
-21 -22 -24 0
-21 -22 -23 0
-26 -27 -28 0
-25 -27 -28 0
-25 -26 -28 0
-25 -26 -27 0
-30 -31 -32 0
-29 -31 -32 0
-29 -30 -32 0
-29 -30 -31 0
-34 -35 -36 0
-33 -35 -36 0
-33 -34 -36 0
-33 -34 -35 0
-38 -39 -40 0
-37 -39 -40 0
-37 -38 -40 0
-37 -38 -39 0
-42 -43 -44 0
-41 -43 -44 0
-41 -42 -44 0
-41 -42 -43 0
-46 -47 -48 0
-45 -47 -48 0
-45 -46 -48 0
-45 -46 -47 0
-50 -51 -52 0
-49 -51 -52 0
-49 -50 -52 0
-49 -50 -51 0
-54 -55 -56 0
-53 -55 -56 0
-53 -54 -56 0
-53 -54 -55 0
-58 -59 -60 0
-57 -59 -60 0
-57 -58 -60 0
-57 -58 -59 0
-62 -63 -64 0
-61 -63 -64 0
-61 -62 -64 0
-61 -62 -63 0
-66 -67 -68 0
-65 -67 -68 0
-65 -66 -68 0
-65 -66 -67 0
-70 -71 -72 0
-69 -71 -72 0
-69 -70 -72 0
-69 -70 -71 0
-74 -75 -76 0
-73 -75 -76 0
-73 -74 -76 0
-73 -74 -75 0
-78 -79 -80 0
-77 -79 -80 0
-77 -78 -80 0
-77 -78 -79 0
-82 -83 -84 0
-81 -83 -84 0
-81 -82 -84 0
-81 -82 -83 0
-86 -87 -88 0
-85 -87 -88 0
-85 -86 -88 0
-85 -86 -87 0
-90 -91 -92 0
-89 -91 -92 0
-89 -90 -92 0
-89 -90 -91 0
-94 -95 -96 0
-93 -95 -96 0
-93 -94 -96 0
-93 -94 -95 0
-98 -99 -100 0
-97 -99 -100 0
-97 -98 -100 0
-97 -98 -99 0
-102 -103 -104 0
-101 -103 -104 0
-101 -102 -104 0
-101 -102 -103 0
-106 -107 -108 0
-105 -107 -108 0
-105 -106 -108 0
-105 -106 -107 0
-110 -111 -112 0
-109 -111 -112 0
-109 -110 -112 0
-109 -110 -111 0
-113 -114 -115 0
-113 -114 -116 0
-113 -114 -117 0
-113 -115 -116 0
-113 -115 -117 0
-113 -116 -117 0
-114 -115 -116 0
-114 -115 -117 0
-114 -116 -117 0
-115 -116 -117 0
103 35 14 0
25 35 14 0
25 103 14 0
25 103 35 0
96 70 38 0
16 70 38 0
16 96 38 0
16 96 70 0
77 13 11 0
56 13 11 0
56 77 11 0
56 77 13 0
113 99 17 0
12 99 17 0
12 113 17 0
12 113 99 0
45 67 24 0
86 67 24 0
86 45 24 0
86 45 67 0
49 22 43 0
110 22 43 0
110 49 43 0
110 49 22 0
61 37 58 0
83 37 58 0
83 61 58 0
83 61 37 0
33 108 66 0
76 108 66 0
76 33 66 0
76 33 108 0
21 116 32 0
91 116 32 0
91 21 32 0
91 21 116 0
52 28 68 0
4 28 68 0
4 52 68 0
4 52 28 0
87 53 39 0
107 53 39 0
107 87 39 0
107 87 53 0
27 71 88 0
100 71 88 0
100 27 88 0
100 27 71 0
30 75 44 0
98 75 44 0
98 30 44 0
98 30 75 0
79 40 89 0
42 40 89 0
42 79 89 0
42 79 40 0
93 31 64 0
104 31 64 0
104 93 64 0
104 93 31 0
78 111 18 0
8 111 18 0
8 78 18 0
8 78 111 0
51 114 46 0
26 114 46 0
26 51 46 0
26 51 114 0
74 92 63 0
20 92 63 0
20 74 63 0
20 74 92 0
117 72 57 0
112 72 57 0
112 117 57 0
112 117 72 0
48 5 15 0
41 5 15 0
41 48 15 0
41 48 5 0
101 55 60 0
65 55 60 0
65 101 60 0
65 101 55 0
84 7 50 0
73 7 50 0
73 84 50 0
73 84 7 0
36 95 23 0
19 95 23 0
19 36 23 0
19 36 95 0
97 105 94 0
1 105 94 0
1 97 94 0
1 97 105 0
81 47 80 0
102 47 80 0
102 81 80 0
102 81 47 0
69 115 106 0
82 115 106 0
82 69 106 0
82 69 115 0
59 10 90 0
34 10 90 0
34 59 90 0
34 59 10 0
62 54 2 0
109 54 2 0
109 62 2 0
109 62 54 0
9 29 3 0
9 29 6 0
9 29 85 0
9 3 6 0
9 3 85 0
9 6 85 0
29 3 6 0
29 3 85 0
29 6 85 0
3 6 85 0
